c A SAT instance generated from a 3-CNF formula that had 52 clauses and 13 variables
p cnf 13 52
-4 -5 -6 0
5 11 -7 0
-3 9 12 0
-3 9 -8 0
-7 -3 13 0
-2 12 9 0
3 -10 8 0
-2 -13 4 0
4 -10 9 0
11 -8 1 0
-12 -7 9 0
-7 -8 4 0
10 9 -5 0
-8 -4 2 0
-9 4 5 0
-1 4 10 0
12 -11 7 0
-5 -4 -7 0
13 11 -1 0
10 1 -12 0
8 -10 2 0
-3 -1 -5 0
1 -10 -2 0
-1 -2 -5 0
-8 3 -1 0
9 3 13 0
-5 -9 -4 0
4 -11 5 0
6 -10 3 0
-3 -6 7 0
-7 13 -4 0
-11 12 -4 0
2 -6 -1 0
7 1 4 0
-11 -2 -3 0
9 -5 8 0
-10 13 -1 0
-2 1 -5 0
-8 3 4 0
12 -1 11 0
-8 9 -11 0
-3 -13 4 0
-1 -13 -2 0
4 8 -2 0
5 -3 2 0
1 -3 10 0
-7 5 -3 0
12 -2 4 0
-9 6 10 0
2 -3 -11 0
-3 -11 -12 0
-2 -5 1 0
